100 10
44 81
34 8
3 22
71 76
27 76
9 70
34 90
84 50
39 82
15 49
51 24
2 44
78 76
8 96
90 88
39 39
67 51
20 42
79 92
65 14
80 28
40 54
53 20
77 76
62 14
73 39
26 48
27 4
59 72
86 76
27 57
41 14
20 21
32 20
35 16
3 35
52 64
50 70
72 88
17 41
62 46
18 8
24 25
12 90
96 12
11 72
97 47
77 68
47 21
100 29
77 72
8 84
19 77
92 84
6 29
81 52
92 52
51 93
7 12
43 49
57 42
29 78
84 74
20 47
94 58
48 16
65 100
56 44
54 99
96 60
99 95
82 73
85 82
37 35
96 29
3 47
76 83
17 41
28 99
19 35
30 12
13 25
59 75
23 34
89 87
59 30
81 78
2 18
84 17
51 88
34 58
22 50
25 57
82 65
63 90
25 73
26 8
91 48
92 91
97 25
390 478
534 606
576 658
502 603
550 651
558 662
525 631
597 726
585 658
516 640
